NPROCS=0
This instance is clustered!
Gurobi Optimizer version 9.0.0 build v9.0.0rc2 (linux64)
Optimize a model with 32 rows, 257 columns and 512 nonzeros
Model fingerprint: 0x8730efbf
Variable types: 1 continuous, 256 integer (256 binary)
Coefficient statistics:
  Matrix range     [1e+00, 1e+00]
  Objective range  [9e-01, 2e+02]
  Bounds range     [1e+00, 1e+00]
  RHS range        [1e+00, 1e+00]
Presolve removed 2 rows and 45 columns
Presolve time: 0.00s
Presolved: 30 rows, 212 columns, 422 nonzeros
Variable types: 1 continuous, 211 integer (211 binary)

Root relaxation: objective 2.473343e+02, 22 iterations, 0.00 seconds

    Nodes    |    Current Node    |     Objective Bounds      |     Work
 Expl Unexpl |  Obj  Depth IntInf | Incumbent    BestBd   Gap | It/Node Time

     0     0  272.30736    0   10          -  272.30736      -     -    0s
 done with super cut 0
     0     0  301.29346    0   17          -  301.29346      -     -    0s
 done with super cut 1
 done with super cut 2
H    0     0                     731.2809975  301.29346  58.8%     -    0s
 done with super cut 3
 done with super cut 4
 done with super cut 5
     0     0  302.94395    0   26  731.28100  302.94395  58.6%     -    1s
 done with super cut 6
 done with super cut 7
H    0     0                     696.1218541  302.94395  56.5%     -    2s
 done with super cut 8
 done with super cut 9
H    0     0                     526.6228016  302.94395  42.5%     -    3s
 done with super cut 10
     0     2  313.52146    0   27  526.62280  313.52146  40.5%     -    4s
   495   372     cutoff   24       526.62280  343.20613  34.8%   6.2    5s
*  684   551              24     489.4308123  352.33982  28.0%   6.0    5s
H 3578  1872                     484.1669476  377.58568  22.0%   6.0    5s
H 3578  1778                     469.0739640  377.58568  19.5%   6.0    5s
H 3581  1691                     467.4377715  377.58568  19.2%   6.0    5s
H 3584  1608                     457.1673030  377.58568  17.4%   6.0    5s
 24945  3597  445.81571   31   29  457.16730  430.89331  5.75%   7.5   10s

Cutting planes:
  Gomory: 3
  MIR: 1
  Zero half: 4
  Lazy constraints: 303

Explored 32975 nodes (263983 simplex iterations) in 11.02 seconds
Thread count was 12 (of 12 available processors)

Solution count 8: 457.167 467.438 469.074 ... 731.281

Optimal solution found (tolerance 1.00e-04)
Best objective 4.571673029725e+02, best bound 4.571673029725e+02, gap 0.0000%

User-callback calls 69043, time in user-callback 4.92 sec
/projects/academic/josewalt/caigao/RRARP_BD/BendersDecomp/ret/model_outs/n_14_h_10_algo_4.out
 =====>>>>> Solution is written to file in <../ret/model_outs> !!!
===>> All Done!
